'hugeuniform112'
150 100 100
150
149
148
147
147
146
145
145
144
143
142
142
140
140
140
138
137
136
136
135
135
135
135
134
130
129
128
128
127
124
122
120
119
119
118
116
115
113
113
111
108
107
107
104
103
103
102
102
100
98
98
98
97
96
96
96
96
93
93
90
89
84
84
81
76
73
71
71
70
69
65
58
52
50
43
41
41
37
37
33
32
31
31
30
27
26
15
14
13
11
11
11
10
10
10
10
6
3
3
3
